p cnf 15 26
a 1 7 0
e 2 3 4 5 6 8 9 10 11 12 13 14 15 0
-3 -1 0
-3 2 0
1 -2 3 0
6 4 0
6 5 0
-4 -5 -6 0
-7 -3 0
-7 -6 0
3 6 7 0
-8 9 -10 0
8 -9 -10 0
-8 -9 10 0
8 9 10 0
11 -12 -13 0
-11 12 -13 0
11 12 13 0
-11 -12 13 0
-14 10 0
-14 -13 0
-10 13 14 0
15 7 0
15 14 0
-7 -14 -15 0
9 -2 11 13 0
-7 -12 9 -6 0
15 0
